instances/knapsack/discrete_knapsack_uncertainty/knapsack_120_16.lp
\ Model knapsack_120_16
\ LP format - for model browsing. Use MPS format to capture full model detail.
\ Signature: 0x89f048c0c90eaa9
Minimize
  - 50 x[0] - 79 x[1] - 80 x[2] - 80 x[3] - 2 x[4] - 73 x[5] - 70 x[6]
   - 40 x[7] - 55 x[8] - 7 x[9] - 39 x[10] - 51 x[11] - 19 x[12] - 42 x[13]
   - 51 x[14] - 44 x[15] - 6 x[16] - 46 x[17] - 47 x[18] - 86 x[19]
   - 14 x[20] - 51 x[21] - 100 x[22] - 80 x[23] - 37 x[24] - 71 x[25]
   - 16 x[26] - 24 x[27] - 6 x[28] - 49 x[29] - 45 x[30] - 12 x[31]
   - 100 x[32] - 51 x[33] - 48 x[34] - 25 x[35] - 49 x[36] - 47 x[37]
   - 99 x[38] - 68 x[39] - 96 x[40] - 78 x[41] - 34 x[42] - 75 x[43]
   - 55 x[44] - 47 x[45] - 29 x[46] - 65 x[47] - 25 x[48] - 22 x[49]
   - 79 x[50] - 67 x[51] - 31 x[52] - 21 x[53] - 32 x[54] - 50 x[55]
   - 7 x[56] - 60 x[57] - 20 x[58] - 7 x[59] - 40 x[60] - 10 x[61]
   - 78 x[62] - 78 x[63] - 35 x[64] - x[65] - 65 x[66] - 6 x[67] - 69 x[68]
   - 46 x[69] - 25 x[70] - 7 x[71] - 69 x[72] - 18 x[73] - 63 x[74]
   - 46 x[75] - 42 x[76] - 5 x[77] - 60 x[78] - 88 x[79] - 47 x[80]
   - 90 x[81] - 34 x[82] - 10 x[83] - 5 x[84] - 93 x[85] - 30 x[86]
   - 43 x[87] - 72 x[88] - 27 x[89] - 66 x[90] - 38 x[91] - 30 x[92]
   - x[93] - 56 x[94] - 35 x[95] - 89 x[96] - 96 x[97] - 81 x[98]
   - 77 x[99] - 33 x[100] - 6 x[101] - 19 x[102] - 66 x[103] - 39 x[104]
   - 39 x[105] - 94 x[106] - x[107] - 78 x[108] - 45 x[109] - 62 x[110]
   - 90 x[111] - 86 x[112] - 36 x[113] - 46 x[114] - 93 x[115] - 75 x[116]
   - 49 x[117] - 18 x[118] - 75 x[119]
Subject To
 primal_upper: 44 x[0] + 40 x[1] + 50 x[2] + 75 x[3] + 56 x[4] + 62 x[5]
   + 5 x[6] + 8 x[7] + 77 x[8] + 54 x[9] + 88 x[10] + 47 x[11] + 56 x[12]
   + 12 x[13] + 93 x[14] + 61 x[15] + 25 x[16] + 64 x[17] + x[18]
   + 54 x[19] + 13 x[20] + 52 x[21] + 80 x[22] + 63 x[23] + 5 x[24]
   + 48 x[25] + 58 x[26] + 72 x[27] + 34 x[28] + 47 x[29] + 34 x[30]
   + 48 x[31] + 32 x[32] + 89 x[33] + 8 x[34] + 93 x[35] + 44 x[36]
   + 49 x[37] + 8 x[38] + 35 x[39] + 75 x[40] + 50 x[41] + 2 x[42]
   + 18 x[43] + 91 x[44] + 75 x[45] + 58 x[46] + 90 x[47] + 79 x[48]
   + 56 x[49] + 99 x[50] + 36 x[51] + 25 x[52] + 40 x[53] + 9 x[54]
   + 20 x[55] + 81 x[56] + 83 x[57] + 68 x[58] + 70 x[59] + 53 x[60]
   + 27 x[61] + 92 x[62] + 59 x[63] + 32 x[64] + 40 x[65] + 57 x[66]
   + 31 x[67] + 100 x[68] + 22 x[69] + 90 x[70] + 18 x[71] + 22 x[72]
   + 83 x[73] + 100 x[74] + 93 x[75] + 3 x[76] + 55 x[77] + 17 x[78]
   + 7 x[79] + 54 x[80] + 54 x[81] + 87 x[82] + 22 x[83] + 42 x[84]
   + 38 x[85] + 16 x[86] + 92 x[87] + 34 x[88] + 19 x[89] + 73 x[90]
   + 73 x[91] + 97 x[92] + 8 x[93] + 92 x[94] + 33 x[95] + 41 x[96]
   + 45 x[97] + 28 x[98] + 36 x[99] + 41 x[100] + 44 x[101] + 98 x[102]
   + 20 x[103] + 21 x[104] + 58 x[105] + 11 x[106] + 27 x[107] + 43 x[108]
   + 77 x[109] + 75 x[110] + 59 x[111] + 81 x[112] + 65 x[113] + 25 x[114]
   + 79 x[115] + 67 x[116] + 97 x[117] + 21 x[118] + 77 x[119] + 4.4 r[0]
   + 4 r[1] + 5 r[2] + 7.5 r[3] + 5.6 r[4] + 6.2 r[5] + 0.5 r[6] + 0.8 r[7]
   + 7.7 r[8] + 5.4 r[9] + 8.8 r[10] + 4.7 r[11] + 5.6 r[12] + 1.2 r[13]
   + 9.3 r[14] + 6.1 r[15] + 2.5 r[16] + 6.4 r[17] + 0.1 r[18] + 5.4 r[19]
   + 1.3 r[20] + 5.2 r[21] + 8 r[22] + 6.3 r[23] + 0.5 r[24] + 4.8 r[25]
   + 5.8 r[26] + 7.2 r[27] + 3.4 r[28] + 4.7 r[29] + 3.4 r[30] + 4.8 r[31]
   + 3.2 r[32] + 8.9 r[33] + 0.8 r[34] + 9.3 r[35] + 4.4 r[36] + 4.9 r[37]
   + 0.8 r[38] + 3.5 r[39] + 7.5 r[40] + 5 r[41] + 0.2 r[42] + 1.8 r[43]
   + 9.1 r[44] + 7.5 r[45] + 5.8 r[46] + 9 r[47] + 7.9 r[48] + 5.6 r[49]
   + 9.9 r[50] + 3.6 r[51] + 2.5 r[52] + 4 r[53] + 0.9 r[54] + 2 r[55]
   + 8.1 r[56] + 8.3 r[57] + 6.8 r[58] + 7 r[59] + 5.3 r[60] + 2.7 r[61]
   + 9.2 r[62] + 5.9 r[63] + 3.2 r[64] + 4 r[65] + 5.7 r[66] + 3.1 r[67]
   + 10 r[68] + 2.2 r[69] + 9 r[70] + 1.8 r[71] + 2.2 r[72] + 8.3 r[73]
   + 10 r[74] + 9.3 r[75] + 0.3 r[76] + 5.5 r[77] + 1.7 r[78] + 0.7 r[79]
   + 5.4 r[80] + 5.4 r[81] + 8.7 r[82] + 2.2 r[83] + 4.2 r[84] + 3.8 r[85]
   + 1.6 r[86] + 9.2 r[87] + 3.4 r[88] + 1.9 r[89] + 7.3 r[90] + 7.3 r[91]
   + 9.7 r[92] + 0.8 r[93] + 9.2 r[94] + 3.3 r[95] + 4.1 r[96] + 4.5 r[97]
   + 2.8 r[98] + 3.6 r[99] + 4.1 r[100] + 4.4 r[101] + 9.8 r[102]
   + 2 r[103] + 2.1 r[104] + 5.8 r[105] + 1.1 r[106] + 2.7 r[107]
   + 4.3 r[108] + 7.7 r[109] + 7.5 r[110] + 5.9 r[111] + 8.1 r[112]
   + 6.5 r[113] + 2.5 r[114] + 7.9 r[115] + 6.7 r[116] + 9.7 r[117]
   + 2.1 r[118] + 7.7 r[119] <= 579
 primal_lower: 1.069421291559772 x[0] + 1.224878123693244 x[1]
   + 3.309676683434541 x[2] + 2.791478867743236 x[3]
   + 1.932702435180891 x[4] + 3.203988008786464 x[5]
   + 1.403713253360305 x[6] + 3.81958994977963 x[7]
   + 0.7353738804478891 x[8] + 3.950057929595506 x[9]
   + 4.245339838440479 x[10] + 2.426884156057429 x[11]
   + 4.146575953082244 x[12] + 4.516184986963398 x[13]
   + 1.428446994914635 x[14] + 1.334930604579572 x[15]
   + 2.506582371357713 x[16] + 3.784893530546179 x[17]
   + 4.025725241551097 x[18] + 0.1199121766294488 x[19]
   + 3.969781596784082 x[20] + 3.279431142489517 x[21]
   + 4.480302553991634 x[22] + 1.488383437190007 x[23]
   + 2.869346001690188 x[24] + 3.901533640566842 x[25]
   + 4.455953264891291 x[26] + 1.343186690201082 x[27]
   + 0.9793956076625527 x[28] + 2.251293492635859 x[29]
   + 3.750815521350229 x[30] + 1.340680308973654 x[31]
   + 0.9529502846953601 x[32] + 2.582476543663823 x[33]
   + 1.661227018339187 x[34] + 4.365718810669423 x[35]
   + 0.5449803416796095 x[36] + 0.9433867371937357 x[37]
   + 4.628452008210227 x[38] + 0.2172068298824837 x[39]
   + 4.646353529680869 x[40] + 0.2045228187034507 x[41]
   + 0.4695867996171432 x[42] + 1.012588473499438 x[43]
   + 2.188379172298522 x[44] + 3.459180077652075 x[45]
   + 3.826948175353448 x[46] + 1.858239720379745 x[47]
   + 3.746047325454705 x[48] + 3.91273216695383 x[49]
   + 2.590681399761284 x[50] + 2.465345364884634 x[51]
   + 0.3242197408478442 x[52] + 0.2875375111118731 x[53]
   + 1.142495294340634 x[54] + 3.830387159351598 x[55]
   + 1.12757993066227 x[56] + 1.358896251652699 x[57]
   + 2.409522160213628 x[58] + 3.108381568994564 x[59]
   + 0.1553532889732247 x[60] + 0.909885906941053 x[61]
   + 2.109845148291309 x[62] + 2.355470244790723 x[63]
   + 2.530892484659314 x[64] + 0.0268555785261794 x[65]
   + 2.911745674476758 x[66] + 2.93979977080759 x[67]
   + 2.560219317529429 x[68] + 2.70315973408321 x[69]
   + 0.4562545162952715 x[70] + 2.737721904459085 x[71]
   + 1.667933280286773 x[72] + 4.49442415404893 x[73]
   + 3.536778509531551 x[74] + 3.725412145129067 x[75]
   + 1.320198687848078 x[76] + 1.65169710670459 x[77]
   + 3.670181526637915 x[78] + 1.082807286971121 x[79]
   + 3.633310826543545 x[80] + 0.3731630611247286 x[81]
   + 1.467558926521976 x[82] + 4.644052238081219 x[83]
   + 3.664327273141371 x[84] + 0.0809276124088885 x[85]
   + 3.886307918040896 x[86] + 1.53449185360235 x[87]
   + 3.176448999129646 x[88] + 2.828207326464212 x[89]
   + 0.9667784697152516 x[90] + 0.5175418679808287 x[91]
   + 3.507414982384863 x[92] + 1.509014467761545 x[93]
   + 1.981446865849669 x[94] + 4.28093908263557 x[95]
   + 3.803435673522556 x[96] + 1.852880068702387 x[97]
   + 0.1206373387013746 x[98] + 4.368685605812284 x[99]
   + 4.568938280722534 x[100] + 4.111558381136862 x[101]
   + 3.135998568368358 x[102] + 3.192143919826143 x[103]
   + 3.08522962229173 x[104] + 0.7294511233786178 x[105]
   + 0.480815688371656 x[106] + 1.482638779702418 x[107]
   + 3.157776922323493 x[108] + 0.5030255609398888 x[109]
   + 0.1519694730232036 x[110] + 4.2937173790703 x[111]
   + 2.941162089225183 x[112] + 0.3930823722984595 x[113]
   + 4.623386814522465 x[114] + 1.926147104882815 x[115]
   + 2.347388061638371 x[116] + 2.411338491993735 x[117]
   + 4.329700230787652 x[118] + 3.57579087043069 x[119] + 91 u[0] + 11 u[1]
   + 65 u[2] + 46 u[3] + 47 u[4] + 37 u[5] + 20 u[6] + 15 u[7] + 64 u[8]
   + 13 u[9] + 71 u[10] + 46 u[11] + 11 u[12] + 79 u[13] + 100 u[14]
   + 60 u[15] + 92 u[16] + 19 u[17] + 60 u[18] + 45 u[19] + 32 u[20]
   + 43 u[21] + 59 u[22] + 50 u[23] + 68 u[24] + 27 u[25] + 65 u[26]
   + 47 u[27] + 85 u[28] + 58 u[29] + 85 u[30] + 39 u[31] + 71 u[32]
   + 60 u[33] + 83 u[34] + 80 u[35] + 71 u[36] + 40 u[37] + 7 u[38]
   + 62 u[39] + 58 u[40] + 97 u[41] + 81 u[42] + 13 u[43] + 2 u[44]
   + 38 u[45] + 45 u[46] + 29 u[47] + 90 u[48] + 91 u[49] + 58 u[50]
   + 31 u[51] + 20 u[52] + 43 u[53] + 92 u[54] + 15 u[55] + 32 u[56]
   + 10 u[57] + 83 u[58] + 29 u[59] + 76 u[60] + 82 u[61] + 55 u[62]
   + 90 u[63] + 11 u[64] + 75 u[65] + 12 u[66] + 90 u[67] + 35 u[68]
   + 13 u[69] + 25 u[70] + 17 u[71] + 25 u[72] + 10 u[73] + 11 u[74]
   + 52 u[75] + 78 u[76] + 46 u[77] + 92 u[78] + 42 u[79] + 21 u[80]
   + 5 u[81] + 6 u[82] + 77 u[83] + 45 u[84] + 57 u[85] + 39 u[86]
   + 7 u[87] + 45 u[88] + 86 u[89] + 52 u[90] + 52 u[91] + 72 u[92]
   + 3 u[93] + 19 u[94] + 100 u[95] + 48 u[96] + 48 u[97] + 87 u[98]
   + 59 u[99] + 92 u[100] + 47 u[101] + u[102] + 23 u[103] + 92 u[104]
   + 81 u[105] + 26 u[106] + 46 u[107] + 6 u[108] + 16 u[109] + 86 u[110]
   + 54 u[111] + 100 u[112] + 60 u[113] + 28 u[114] + 34 u[115] + 10 u[116]
   + 20 u[117] + 52 u[118] + 92 u[119] <= 82888
 mccormick1[0]: - u[0] + r[0] <= 0
 mccormick1[1]: - u[1] + r[1] <= 0
 mccormick1[2]: - u[2] + r[2] <= 0
 mccormick1[3]: - u[3] + r[3] <= 0
 mccormick1[4]: - u[4] + r[4] <= 0
 mccormick1[5]: - u[5] + r[5] <= 0
 mccormick1[6]: - u[6] + r[6] <= 0
 mccormick1[7]: - u[7] + r[7] <= 0
 mccormick1[8]: - u[8] + r[8] <= 0
 mccormick1[9]: - u[9] + r[9] <= 0
 mccormick1[10]: - u[10] + r[10] <= 0
 mccormick1[11]: - u[11] + r[11] <= 0
 mccormick1[12]: - u[12] + r[12] <= 0
 mccormick1[13]: - u[13] + r[13] <= 0
 mccormick1[14]: - u[14] + r[14] <= 0
 mccormick1[15]: - u[15] + r[15] <= 0
 mccormick1[16]: - u[16] + r[16] <= 0
 mccormick1[17]: - u[17] + r[17] <= 0
 mccormick1[18]: - u[18] + r[18] <= 0
 mccormick1[19]: - u[19] + r[19] <= 0
 mccormick1[20]: - u[20] + r[20] <= 0
 mccormick1[21]: - u[21] + r[21] <= 0
 mccormick1[22]: - u[22] + r[22] <= 0
 mccormick1[23]: - u[23] + r[23] <= 0
 mccormick1[24]: - u[24] + r[24] <= 0
 mccormick1[25]: - u[25] + r[25] <= 0
 mccormick1[26]: - u[26] + r[26] <= 0
 mccormick1[27]: - u[27] + r[27] <= 0
 mccormick1[28]: - u[28] + r[28] <= 0
 mccormick1[29]: - u[29] + r[29] <= 0
 mccormick1[30]: - u[30] + r[30] <= 0
 mccormick1[31]: - u[31] + r[31] <= 0
 mccormick1[32]: - u[32] + r[32] <= 0
 mccormick1[33]: - u[33] + r[33] <= 0
 mccormick1[34]: - u[34] + r[34] <= 0
 mccormick1[35]: - u[35] + r[35] <= 0
 mccormick1[36]: - u[36] + r[36] <= 0
 mccormick1[37]: - u[37] + r[37] <= 0
 mccormick1[38]: - u[38] + r[38] <= 0
 mccormick1[39]: - u[39] + r[39] <= 0
 mccormick1[40]: - u[40] + r[40] <= 0
 mccormick1[41]: - u[41] + r[41] <= 0
 mccormick1[42]: - u[42] + r[42] <= 0
 mccormick1[43]: - u[43] + r[43] <= 0
 mccormick1[44]: - u[44] + r[44] <= 0
 mccormick1[45]: - u[45] + r[45] <= 0
 mccormick1[46]: - u[46] + r[46] <= 0
 mccormick1[47]: - u[47] + r[47] <= 0
 mccormick1[48]: - u[48] + r[48] <= 0
 mccormick1[49]: - u[49] + r[49] <= 0
 mccormick1[50]: - u[50] + r[50] <= 0
 mccormick1[51]: - u[51] + r[51] <= 0
 mccormick1[52]: - u[52] + r[52] <= 0
 mccormick1[53]: - u[53] + r[53] <= 0
 mccormick1[54]: - u[54] + r[54] <= 0
 mccormick1[55]: - u[55] + r[55] <= 0
 mccormick1[56]: - u[56] + r[56] <= 0
 mccormick1[57]: - u[57] + r[57] <= 0
 mccormick1[58]: - u[58] + r[58] <= 0
 mccormick1[59]: - u[59] + r[59] <= 0
 mccormick1[60]: - u[60] + r[60] <= 0
 mccormick1[61]: - u[61] + r[61] <= 0
 mccormick1[62]: - u[62] + r[62] <= 0
 mccormick1[63]: - u[63] + r[63] <= 0
 mccormick1[64]: - u[64] + r[64] <= 0
 mccormick1[65]: - u[65] + r[65] <= 0
 mccormick1[66]: - u[66] + r[66] <= 0
 mccormick1[67]: - u[67] + r[67] <= 0
 mccormick1[68]: - u[68] + r[68] <= 0
 mccormick1[69]: - u[69] + r[69] <= 0
 mccormick1[70]: - u[70] + r[70] <= 0
 mccormick1[71]: - u[71] + r[71] <= 0
 mccormick1[72]: - u[72] + r[72] <= 0
 mccormick1[73]: - u[73] + r[73] <= 0
 mccormick1[74]: - u[74] + r[74] <= 0
 mccormick1[75]: - u[75] + r[75] <= 0
 mccormick1[76]: - u[76] + r[76] <= 0
 mccormick1[77]: - u[77] + r[77] <= 0
 mccormick1[78]: - u[78] + r[78] <= 0
 mccormick1[79]: - u[79] + r[79] <= 0
 mccormick1[80]: - u[80] + r[80] <= 0
 mccormick1[81]: - u[81] + r[81] <= 0
 mccormick1[82]: - u[82] + r[82] <= 0
 mccormick1[83]: - u[83] + r[83] <= 0
 mccormick1[84]: - u[84] + r[84] <= 0
 mccormick1[85]: - u[85] + r[85] <= 0
 mccormick1[86]: - u[86] + r[86] <= 0
 mccormick1[87]: - u[87] + r[87] <= 0
 mccormick1[88]: - u[88] + r[88] <= 0
 mccormick1[89]: - u[89] + r[89] <= 0
 mccormick1[90]: - u[90] + r[90] <= 0
 mccormick1[91]: - u[91] + r[91] <= 0
 mccormick1[92]: - u[92] + r[92] <= 0
 mccormick1[93]: - u[93] + r[93] <= 0
 mccormick1[94]: - u[94] + r[94] <= 0
 mccormick1[95]: - u[95] + r[95] <= 0
 mccormick1[96]: - u[96] + r[96] <= 0
 mccormick1[97]: - u[97] + r[97] <= 0
 mccormick1[98]: - u[98] + r[98] <= 0
 mccormick1[99]: - u[99] + r[99] <= 0
 mccormick1[100]: - u[100] + r[100] <= 0
 mccormick1[101]: - u[101] + r[101] <= 0
 mccormick1[102]: - u[102] + r[102] <= 0
 mccormick1[103]: - u[103] + r[103] <= 0
 mccormick1[104]: - u[104] + r[104] <= 0
 mccormick1[105]: - u[105] + r[105] <= 0
 mccormick1[106]: - u[106] + r[106] <= 0
 mccormick1[107]: - u[107] + r[107] <= 0
 mccormick1[108]: - u[108] + r[108] <= 0
 mccormick1[109]: - u[109] + r[109] <= 0
 mccormick1[110]: - u[110] + r[110] <= 0
 mccormick1[111]: - u[111] + r[111] <= 0
 mccormick1[112]: - u[112] + r[112] <= 0
 mccormick1[113]: - u[113] + r[113] <= 0
 mccormick1[114]: - u[114] + r[114] <= 0
 mccormick1[115]: - u[115] + r[115] <= 0
 mccormick1[116]: - u[116] + r[116] <= 0
 mccormick1[117]: - u[117] + r[117] <= 0
 mccormick1[118]: - u[118] + r[118] <= 0
 mccormick1[119]: - u[119] + r[119] <= 0
 mccormick2[0]: - x[0] + r[0] <= 0
 mccormick2[1]: - x[1] + r[1] <= 0
 mccormick2[2]: - x[2] + r[2] <= 0
 mccormick2[3]: - x[3] + r[3] <= 0
 mccormick2[4]: - x[4] + r[4] <= 0
 mccormick2[5]: - x[5] + r[5] <= 0
 mccormick2[6]: - x[6] + r[6] <= 0
 mccormick2[7]: - x[7] + r[7] <= 0
 mccormick2[8]: - x[8] + r[8] <= 0
 mccormick2[9]: - x[9] + r[9] <= 0
 mccormick2[10]: - x[10] + r[10] <= 0
 mccormick2[11]: - x[11] + r[11] <= 0
 mccormick2[12]: - x[12] + r[12] <= 0
 mccormick2[13]: - x[13] + r[13] <= 0
 mccormick2[14]: - x[14] + r[14] <= 0
 mccormick2[15]: - x[15] + r[15] <= 0
 mccormick2[16]: - x[16] + r[16] <= 0
 mccormick2[17]: - x[17] + r[17] <= 0
 mccormick2[18]: - x[18] + r[18] <= 0
 mccormick2[19]: - x[19] + r[19] <= 0
 mccormick2[20]: - x[20] + r[20] <= 0
 mccormick2[21]: - x[21] + r[21] <= 0
 mccormick2[22]: - x[22] + r[22] <= 0
 mccormick2[23]: - x[23] + r[23] <= 0
 mccormick2[24]: - x[24] + r[24] <= 0
 mccormick2[25]: - x[25] + r[25] <= 0
 mccormick2[26]: - x[26] + r[26] <= 0
 mccormick2[27]: - x[27] + r[27] <= 0
 mccormick2[28]: - x[28] + r[28] <= 0
 mccormick2[29]: - x[29] + r[29] <= 0
 mccormick2[30]: - x[30] + r[30] <= 0
 mccormick2[31]: - x[31] + r[31] <= 0
 mccormick2[32]: - x[32] + r[32] <= 0
 mccormick2[33]: - x[33] + r[33] <= 0
 mccormick2[34]: - x[34] + r[34] <= 0
 mccormick2[35]: - x[35] + r[35] <= 0
 mccormick2[36]: - x[36] + r[36] <= 0
 mccormick2[37]: - x[37] + r[37] <= 0
 mccormick2[38]: - x[38] + r[38] <= 0
 mccormick2[39]: - x[39] + r[39] <= 0
 mccormick2[40]: - x[40] + r[40] <= 0
 mccormick2[41]: - x[41] + r[41] <= 0
 mccormick2[42]: - x[42] + r[42] <= 0
 mccormick2[43]: - x[43] + r[43] <= 0
 mccormick2[44]: - x[44] + r[44] <= 0
 mccormick2[45]: - x[45] + r[45] <= 0
 mccormick2[46]: - x[46] + r[46] <= 0
 mccormick2[47]: - x[47] + r[47] <= 0
 mccormick2[48]: - x[48] + r[48] <= 0
 mccormick2[49]: - x[49] + r[49] <= 0
 mccormick2[50]: - x[50] + r[50] <= 0
 mccormick2[51]: - x[51] + r[51] <= 0
 mccormick2[52]: - x[52] + r[52] <= 0
 mccormick2[53]: - x[53] + r[53] <= 0
 mccormick2[54]: - x[54] + r[54] <= 0
 mccormick2[55]: - x[55] + r[55] <= 0
 mccormick2[56]: - x[56] + r[56] <= 0
 mccormick2[57]: - x[57] + r[57] <= 0
 mccormick2[58]: - x[58] + r[58] <= 0
 mccormick2[59]: - x[59] + r[59] <= 0
 mccormick2[60]: - x[60] + r[60] <= 0
 mccormick2[61]: - x[61] + r[61] <= 0
 mccormick2[62]: - x[62] + r[62] <= 0
 mccormick2[63]: - x[63] + r[63] <= 0
 mccormick2[64]: - x[64] + r[64] <= 0
 mccormick2[65]: - x[65] + r[65] <= 0
 mccormick2[66]: - x[66] + r[66] <= 0
 mccormick2[67]: - x[67] + r[67] <= 0
 mccormick2[68]: - x[68] + r[68] <= 0
 mccormick2[69]: - x[69] + r[69] <= 0
 mccormick2[70]: - x[70] + r[70] <= 0
 mccormick2[71]: - x[71] + r[71] <= 0
 mccormick2[72]: - x[72] + r[72] <= 0
 mccormick2[73]: - x[73] + r[73] <= 0
 mccormick2[74]: - x[74] + r[74] <= 0
 mccormick2[75]: - x[75] + r[75] <= 0
 mccormick2[76]: - x[76] + r[76] <= 0
 mccormick2[77]: - x[77] + r[77] <= 0
 mccormick2[78]: - x[78] + r[78] <= 0
 mccormick2[79]: - x[79] + r[79] <= 0
 mccormick2[80]: - x[80] + r[80] <= 0
 mccormick2[81]: - x[81] + r[81] <= 0
 mccormick2[82]: - x[82] + r[82] <= 0
 mccormick2[83]: - x[83] + r[83] <= 0
 mccormick2[84]: - x[84] + r[84] <= 0
 mccormick2[85]: - x[85] + r[85] <= 0
 mccormick2[86]: - x[86] + r[86] <= 0
 mccormick2[87]: - x[87] + r[87] <= 0
 mccormick2[88]: - x[88] + r[88] <= 0
 mccormick2[89]: - x[89] + r[89] <= 0
 mccormick2[90]: - x[90] + r[90] <= 0
 mccormick2[91]: - x[91] + r[91] <= 0
 mccormick2[92]: - x[92] + r[92] <= 0
 mccormick2[93]: - x[93] + r[93] <= 0
 mccormick2[94]: - x[94] + r[94] <= 0
 mccormick2[95]: - x[95] + r[95] <= 0
 mccormick2[96]: - x[96] + r[96] <= 0
 mccormick2[97]: - x[97] + r[97] <= 0
 mccormick2[98]: - x[98] + r[98] <= 0
 mccormick2[99]: - x[99] + r[99] <= 0
 mccormick2[100]: - x[100] + r[100] <= 0
 mccormick2[101]: - x[101] + r[101] <= 0
 mccormick2[102]: - x[102] + r[102] <= 0
 mccormick2[103]: - x[103] + r[103] <= 0
 mccormick2[104]: - x[104] + r[104] <= 0
 mccormick2[105]: - x[105] + r[105] <= 0
 mccormick2[106]: - x[106] + r[106] <= 0
 mccormick2[107]: - x[107] + r[107] <= 0
 mccormick2[108]: - x[108] + r[108] <= 0
 mccormick2[109]: - x[109] + r[109] <= 0
 mccormick2[110]: - x[110] + r[110] <= 0
 mccormick2[111]: - x[111] + r[111] <= 0
 mccormick2[112]: - x[112] + r[112] <= 0
 mccormick2[113]: - x[113] + r[113] <= 0
 mccormick2[114]: - x[114] + r[114] <= 0
 mccormick2[115]: - x[115] + r[115] <= 0
 mccormick2[116]: - x[116] + r[116] <= 0
 mccormick2[117]: - x[117] + r[117] <= 0
 mccormick2[118]: - x[118] + r[118] <= 0
 mccormick2[119]: - x[119] + r[119] <= 0
 mccormick3[0]: x[0] + u[0] - r[0] <= 1
 mccormick3[1]: x[1] + u[1] - r[1] <= 1
 mccormick3[2]: x[2] + u[2] - r[2] <= 1
 mccormick3[3]: x[3] + u[3] - r[3] <= 1
 mccormick3[4]: x[4] + u[4] - r[4] <= 1
 mccormick3[5]: x[5] + u[5] - r[5] <= 1
 mccormick3[6]: x[6] + u[6] - r[6] <= 1
 mccormick3[7]: x[7] + u[7] - r[7] <= 1
 mccormick3[8]: x[8] + u[8] - r[8] <= 1
 mccormick3[9]: x[9] + u[9] - r[9] <= 1
 mccormick3[10]: x[10] + u[10] - r[10] <= 1
 mccormick3[11]: x[11] + u[11] - r[11] <= 1
 mccormick3[12]: x[12] + u[12] - r[12] <= 1
 mccormick3[13]: x[13] + u[13] - r[13] <= 1
 mccormick3[14]: x[14] + u[14] - r[14] <= 1
 mccormick3[15]: x[15] + u[15] - r[15] <= 1
 mccormick3[16]: x[16] + u[16] - r[16] <= 1
 mccormick3[17]: x[17] + u[17] - r[17] <= 1
 mccormick3[18]: x[18] + u[18] - r[18] <= 1
 mccormick3[19]: x[19] + u[19] - r[19] <= 1
 mccormick3[20]: x[20] + u[20] - r[20] <= 1
 mccormick3[21]: x[21] + u[21] - r[21] <= 1
 mccormick3[22]: x[22] + u[22] - r[22] <= 1
 mccormick3[23]: x[23] + u[23] - r[23] <= 1
 mccormick3[24]: x[24] + u[24] - r[24] <= 1
 mccormick3[25]: x[25] + u[25] - r[25] <= 1
 mccormick3[26]: x[26] + u[26] - r[26] <= 1
 mccormick3[27]: x[27] + u[27] - r[27] <= 1
 mccormick3[28]: x[28] + u[28] - r[28] <= 1
 mccormick3[29]: x[29] + u[29] - r[29] <= 1
 mccormick3[30]: x[30] + u[30] - r[30] <= 1
 mccormick3[31]: x[31] + u[31] - r[31] <= 1
 mccormick3[32]: x[32] + u[32] - r[32] <= 1
 mccormick3[33]: x[33] + u[33] - r[33] <= 1
 mccormick3[34]: x[34] + u[34] - r[34] <= 1
 mccormick3[35]: x[35] + u[35] - r[35] <= 1
 mccormick3[36]: x[36] + u[36] - r[36] <= 1
 mccormick3[37]: x[37] + u[37] - r[37] <= 1
 mccormick3[38]: x[38] + u[38] - r[38] <= 1
 mccormick3[39]: x[39] + u[39] - r[39] <= 1
 mccormick3[40]: x[40] + u[40] - r[40] <= 1
 mccormick3[41]: x[41] + u[41] - r[41] <= 1
 mccormick3[42]: x[42] + u[42] - r[42] <= 1
 mccormick3[43]: x[43] + u[43] - r[43] <= 1
 mccormick3[44]: x[44] + u[44] - r[44] <= 1
 mccormick3[45]: x[45] + u[45] - r[45] <= 1
 mccormick3[46]: x[46] + u[46] - r[46] <= 1
 mccormick3[47]: x[47] + u[47] - r[47] <= 1
 mccormick3[48]: x[48] + u[48] - r[48] <= 1
 mccormick3[49]: x[49] + u[49] - r[49] <= 1
 mccormick3[50]: x[50] + u[50] - r[50] <= 1
 mccormick3[51]: x[51] + u[51] - r[51] <= 1
 mccormick3[52]: x[52] + u[52] - r[52] <= 1
 mccormick3[53]: x[53] + u[53] - r[53] <= 1
 mccormick3[54]: x[54] + u[54] - r[54] <= 1
 mccormick3[55]: x[55] + u[55] - r[55] <= 1
 mccormick3[56]: x[56] + u[56] - r[56] <= 1
 mccormick3[57]: x[57] + u[57] - r[57] <= 1
 mccormick3[58]: x[58] + u[58] - r[58] <= 1
 mccormick3[59]: x[59] + u[59] - r[59] <= 1
 mccormick3[60]: x[60] + u[60] - r[60] <= 1
 mccormick3[61]: x[61] + u[61] - r[61] <= 1
 mccormick3[62]: x[62] + u[62] - r[62] <= 1
 mccormick3[63]: x[63] + u[63] - r[63] <= 1
 mccormick3[64]: x[64] + u[64] - r[64] <= 1
 mccormick3[65]: x[65] + u[65] - r[65] <= 1
 mccormick3[66]: x[66] + u[66] - r[66] <= 1
 mccormick3[67]: x[67] + u[67] - r[67] <= 1
 mccormick3[68]: x[68] + u[68] - r[68] <= 1
 mccormick3[69]: x[69] + u[69] - r[69] <= 1
 mccormick3[70]: x[70] + u[70] - r[70] <= 1
 mccormick3[71]: x[71] + u[71] - r[71] <= 1
 mccormick3[72]: x[72] + u[72] - r[72] <= 1
 mccormick3[73]: x[73] + u[73] - r[73] <= 1
 mccormick3[74]: x[74] + u[74] - r[74] <= 1
 mccormick3[75]: x[75] + u[75] - r[75] <= 1
 mccormick3[76]: x[76] + u[76] - r[76] <= 1
 mccormick3[77]: x[77] + u[77] - r[77] <= 1
 mccormick3[78]: x[78] + u[78] - r[78] <= 1
 mccormick3[79]: x[79] + u[79] - r[79] <= 1
 mccormick3[80]: x[80] + u[80] - r[80] <= 1
 mccormick3[81]: x[81] + u[81] - r[81] <= 1
 mccormick3[82]: x[82] + u[82] - r[82] <= 1
 mccormick3[83]: x[83] + u[83] - r[83] <= 1
 mccormick3[84]: x[84] + u[84] - r[84] <= 1
 mccormick3[85]: x[85] + u[85] - r[85] <= 1
 mccormick3[86]: x[86] + u[86] - r[86] <= 1
 mccormick3[87]: x[87] + u[87] - r[87] <= 1
 mccormick3[88]: x[88] + u[88] - r[88] <= 1
 mccormick3[89]: x[89] + u[89] - r[89] <= 1
 mccormick3[90]: x[90] + u[90] - r[90] <= 1
 mccormick3[91]: x[91] + u[91] - r[91] <= 1
 mccormick3[92]: x[92] + u[92] - r[92] <= 1
 mccormick3[93]: x[93] + u[93] - r[93] <= 1
 mccormick3[94]: x[94] + u[94] - r[94] <= 1
 mccormick3[95]: x[95] + u[95] - r[95] <= 1
 mccormick3[96]: x[96] + u[96] - r[96] <= 1
 mccormick3[97]: x[97] + u[97] - r[97] <= 1
 mccormick3[98]: x[98] + u[98] - r[98] <= 1
 mccormick3[99]: x[99] + u[99] - r[99] <= 1
 mccormick3[100]: x[100] + u[100] - r[100] <= 1
 mccormick3[101]: x[101] + u[101] - r[101] <= 1
 mccormick3[102]: x[102] + u[102] - r[102] <= 1
 mccormick3[103]: x[103] + u[103] - r[103] <= 1
 mccormick3[104]: x[104] + u[104] - r[104] <= 1
 mccormick3[105]: x[105] + u[105] - r[105] <= 1
 mccormick3[106]: x[106] + u[106] - r[106] <= 1
 mccormick3[107]: x[107] + u[107] - r[107] <= 1
 mccormick3[108]: x[108] + u[108] - r[108] <= 1
 mccormick3[109]: x[109] + u[109] - r[109] <= 1
 mccormick3[110]: x[110] + u[110] - r[110] <= 1
 mccormick3[111]: x[111] + u[111] - r[111] <= 1
 mccormick3[112]: x[112] + u[112] - r[112] <= 1
 mccormick3[113]: x[113] + u[113] - r[113] <= 1
 mccormick3[114]: x[114] + u[114] - r[114] <= 1
 mccormick3[115]: x[115] + u[115] - r[115] <= 1
 mccormick3[116]: x[116] + u[116] - r[116] <= 1
 mccormick3[117]: x[117] + u[117] - r[117] <= 1
 mccormick3[118]: x[118] + u[118] - r[118] <= 1
 mccormick3[119]: x[119] + u[119] - r[119] <= 1
Bounds
Binaries
 x[0] x[1] x[2] x[3] x[4] x[5] x[6] x[7] x[8] x[9] x[10] x[11] x[12] x[13]
 x[14] x[15] x[16] x[17] x[18] x[19] x[20] x[21] x[22] x[23] x[24] x[25]
 x[26] x[27] x[28] x[29] x[30] x[31] x[32] x[33] x[34] x[35] x[36] x[37]
 x[38] x[39] x[40] x[41] x[42] x[43] x[44] x[45] x[46] x[47] x[48] x[49]
 x[50] x[51] x[52] x[53] x[54] x[55] x[56] x[57] x[58] x[59] x[60] x[61]
 x[62] x[63] x[64] x[65] x[66] x[67] x[68] x[69] x[70] x[71] x[72] x[73]
 x[74] x[75] x[76] x[77] x[78] x[79] x[80] x[81] x[82] x[83] x[84] x[85]
 x[86] x[87] x[88] x[89] x[90] x[91] x[92] x[93] x[94] x[95] x[96] x[97]
 x[98] x[99] x[100] x[101] x[102] x[103] x[104] x[105] x[106] x[107] x[108]
 x[109] x[110] x[111] x[112] x[113] x[114] x[115] x[116] x[117] x[118]
 x[119] u[0] u[1] u[2] u[3] u[4] u[5] u[6] u[7] u[8] u[9] u[10] u[11] u[12]
 u[13] u[14] u[15] u[16] u[17] u[18] u[19] u[20] u[21] u[22] u[23] u[24]
 u[25] u[26] u[27] u[28] u[29] u[30] u[31] u[32] u[33] u[34] u[35] u[36]
 u[37] u[38] u[39] u[40] u[41] u[42] u[43] u[44] u[45] u[46] u[47] u[48]
 u[49] u[50] u[51] u[52] u[53] u[54] u[55] u[56] u[57] u[58] u[59] u[60]
 u[61] u[62] u[63] u[64] u[65] u[66] u[67] u[68] u[69] u[70] u[71] u[72]
 u[73] u[74] u[75] u[76] u[77] u[78] u[79] u[80] u[81] u[82] u[83] u[84]
 u[85] u[86] u[87] u[88] u[89] u[90] u[91] u[92] u[93] u[94] u[95] u[96]
 u[97] u[98] u[99] u[100] u[101] u[102] u[103] u[104] u[105] u[106] u[107]
 u[108] u[109] u[110] u[111] u[112] u[113] u[114] u[115] u[116] u[117]
 u[118] u[119] r[0] r[1] r[2] r[3] r[4] r[5] r[6] r[7] r[8] r[9] r[10]
 r[11] r[12] r[13] r[14] r[15] r[16] r[17] r[18] r[19] r[20] r[21] r[22]
 r[23] r[24] r[25] r[26] r[27] r[28] r[29] r[30] r[31] r[32] r[33] r[34]
 r[35] r[36] r[37] r[38] r[39] r[40] r[41] r[42] r[43] r[44] r[45] r[46]
 r[47] r[48] r[49] r[50] r[51] r[52] r[53] r[54] r[55] r[56] r[57] r[58]
 r[59] r[60] r[61] r[62] r[63] r[64] r[65] r[66] r[67] r[68] r[69] r[70]
 r[71] r[72] r[73] r[74] r[75] r[76] r[77] r[78] r[79] r[80] r[81] r[82]
 r[83] r[84] r[85] r[86] r[87] r[88] r[89] r[90] r[91] r[92] r[93] r[94]
 r[95] r[96] r[97] r[98] r[99] r[100] r[101] r[102] r[103] r[104] r[105]
 r[106] r[107] r[108] r[109] r[110] r[111] r[112] r[113] r[114] r[115]
 r[116] r[117] r[118] r[119]
End
