instances/knapsack/discrete/knapsack_120_16.kp
38426
120
579

44 4.4 50
40 4.0 79
50 5.0 80
75 7.5 80
56 5.6 2
62 6.2 73
5 0.5 70
8 0.8 40
77 7.7 55
54 5.4 7
88 8.8 39
47 4.7 51
56 5.6 19
12 1.2 42
93 9.3 51
61 6.1 44
25 2.5 6
64 6.4 46
1 0.1 47
54 5.4 86
13 1.3 14
52 5.2 51
80 8.0 100
63 6.3 80
5 0.5 37
48 4.8 71
58 5.8 16
72 7.2 24
34 3.4 6
47 4.7 49
34 3.4 45
48 4.8 12
32 3.2 100
89 8.9 51
8 0.8 48
93 9.3 25
44 4.4 49
49 4.9 47
8 0.8 99
35 3.5 68
75 7.5 96
50 5.0 78
2 0.2 34
18 1.8 75
91 9.1 55
75 7.5 47
58 5.8 29
90 9.0 65
79 7.9 25
56 5.6 22
99 9.9 79
36 3.6 67
25 2.5 31
40 4.0 21
9 0.9 32
20 2.0 50
81 8.1 7
83 8.3 60
68 6.8 20
70 7.0 7
53 5.3 40
27 2.7 10
92 9.2 78
59 5.9 78
32 3.2 35
40 4.0 1
57 5.7 65
31 3.1 6
100 10.0 69
22 2.2 46
90 9.0 25
18 1.8 7
22 2.2 69
83 8.3 18
100 10.0 63
93 9.3 46
3 0.3 42
55 5.5 5
17 1.7 60
7 0.7 88
54 5.4 47
54 5.4 90
87 8.7 34
22 2.2 10
42 4.2 5
38 3.8 93
16 1.6 30
92 9.2 43
34 3.4 72
19 1.9 27
73 7.3 66
73 7.3 38
97 9.7 30
8 0.8 1
92 9.2 56
33 3.3 35
41 4.1 89
45 4.5 96
28 2.8 81
36 3.6 77
41 4.1 33
44 4.4 6
98 9.8 19
20 2.0 66
21 2.1 39
58 5.8 39
11 1.1 94
27 2.7 1
43 4.3 78
77 7.7 45
75 7.5 62
59 5.9 90
81 8.1 86
65 6.5 36
25 2.5 46
79 7.9 93
67 6.7 75
97 9.7 49
21 2.1 18
77 7.7 75

82888
563

[1.0694212915597716 1.2248781236932442 3.3096766834345406 2.7914788677432356 1.9327024351808906 3.2039880087864643 1.4037132533603054 3.81958994977963 0.7353738804478891 3.9500579295955056 4.245339838440479 2.4268841560574295 4.146575953082244 4.516184986963398 1.4284469949146354 1.3349306045795721 2.506582371357713 3.7848935305461793 4.025725241551097 0.11991217662944878 3.9697815967840824 3.279431142489517 4.480302553991634 1.4883834371900069 2.869346001690188 3.901533640566842 4.455953264891291 1.3431866902010816 0.9793956076625527 2.2512934926358588 3.7508155213502294 1.340680308973654 0.9529502846953601 2.582476543663823 1.661227018339187 4.365718810669423 0.5449803416796095 0.9433867371937357 4.6284520082102265 0.2172068298824837 4.646353529680869 0.20452281870345068 0.46958679961714317 1.0125884734994377 2.1883791722985215 3.4591800776520754 3.8269481753534484 1.858239720379745 3.7460473254547053 3.9127321669538304 2.590681399761284 2.465345364884634 0.32421974084784416 0.28753751111187315 1.142495294340634 3.8303871593515977 1.1275799306622702 1.358896251652699 2.4095221602136276 3.1083815689945644 0.1553532889732247 0.909885906941053 2.1098451482913085 2.355470244790723 2.5308924846593137 0.02685557852617943 2.911745674476758 2.93979977080759 2.5602193175294286 2.70315973408321 0.45625451629527153 2.7377219044590846 1.6679332802867726 4.4944241540489305 3.5367785095315507 3.725412145129067 1.3201986878480785 1.65169710670459 3.6701815266379145 1.082807286971121 3.6333108265435445 0.3731630611247286 1.4675589265219755 4.644052238081219 3.664327273141371 0.08092761240888846 3.886307918040896 1.53449185360235 3.176448999129646 2.8282073264642116 0.9667784697152516 0.5175418679808287 3.507414982384863 1.5090144677615454 1.9814468658496687 4.28093908263557 3.8034356735225563 1.8528800687023872 0.12063733870137464 4.368685605812284 4.568938280722534 4.111558381136862 3.135998568368358 3.1921439198261425 3.08522962229173 0.7294511233786178 0.480815688371656 1.482638779702418 3.157776922323493 0.5030255609398888 0.15196947302320357 4.2937173790703005 2.941162089225183 0.3930823722984595 4.623386814522465 1.9261471048828154 2.3473880616383713 2.4113384919937353 4.329700230787652 3.57579087043069]

[91 11 65 46 47 37 20 15 64 13 71 46 11 79 100 60 92 19 60 45 32 43 59 50 68 27 65 47 85 58 85 39 71 60 83 80 71 40 7 62 58 97 81 13 2 38 45 29 90 91 58 31 20 43 92 15 32 10 83 29 76 82 55 90 11 75 12 90 35 13 25 17 25 10 11 52 78 46 92 42 21 5 6 77 45 57 39 7 45 86 52 52 72 3 19 100 48 48 87 59 92 47 1 23 92 81 26 46 6 16 86 54 100 60 28 34 10 20 52 92]
